c n orig vars 92
p cnf 94 308
1 2 -93 0
3 4 -93 0
5 6 -93 0
7 8 -93 0
9 10 -93 0
11 12 -93 0
13 14 -93 0
15 16 -93 0
17 18 -93 0
19 20 -93 0
21 30 39 48 57 66 75 84 -94 0
22 31 40 49 58 67 76 85 -94 0
23 32 41 50 59 68 77 86 -94 0
24 33 42 51 60 69 78 87 -94 0
25 34 43 52 61 70 79 88 -94 0
26 35 44 53 62 71 80 89 -94 0
27 36 45 54 63 72 81 90 -94 0
28 37 46 55 64 73 82 91 -94 0
29 38 47 56 65 74 83 92 -94 0
-21 -22 -94 0
-21 -23 -94 0
-21 -24 -94 0
-21 -25 -94 0
-21 -26 -94 0
-21 -27 -94 0
-21 -28 -94 0
-21 -29 -94 0
-22 -23 -94 0
-22 -24 -94 0
-22 -25 -94 0
-22 -26 -94 0
-22 -27 -94 0
-22 -28 -94 0
-22 -29 -94 0
-23 -24 -94 0
-23 -25 -94 0
-23 -26 -94 0
-23 -27 -94 0
-23 -28 -94 0
-23 -29 -94 0
-24 -25 -94 0
-24 -26 -94 0
-24 -27 -94 0
-24 -28 -94 0
-24 -29 -94 0
-25 -26 -94 0
-25 -27 -94 0
-25 -28 -94 0
-25 -29 -94 0
-26 -27 -94 0
-26 -28 -94 0
-26 -29 -94 0
-27 -28 -94 0
-27 -29 -94 0
-28 -29 -94 0
-30 -31 -94 0
-30 -32 -94 0
-30 -33 -94 0
-30 -34 -94 0
-30 -35 -94 0
-30 -36 -94 0
-30 -37 -94 0
-30 -38 -94 0
-31 -32 -94 0
-31 -33 -94 0
-31 -34 -94 0
-31 -35 -94 0
-31 -36 -94 0
-31 -37 -94 0
-31 -38 -94 0
-32 -33 -94 0
-32 -34 -94 0
-32 -35 -94 0
-32 -36 -94 0
-32 -37 -94 0
-32 -38 -94 0
-33 -34 -94 0
-33 -35 -94 0
-33 -36 -94 0
-33 -37 -94 0
-33 -38 -94 0
-34 -35 -94 0
-34 -36 -94 0
-34 -37 -94 0
-34 -38 -94 0
-35 -36 -94 0
-35 -37 -94 0
-35 -38 -94 0
-36 -37 -94 0
-36 -38 -94 0
-37 -38 -94 0
-39 -40 -94 0
-39 -41 -94 0
-39 -42 -94 0
-39 -43 -94 0
-39 -44 -94 0
-39 -45 -94 0
-39 -46 -94 0
-39 -47 -94 0
-40 -41 -94 0
-40 -42 -94 0
-40 -43 -94 0
-40 -44 -94 0
-40 -45 -94 0
-40 -46 -94 0
-40 -47 -94 0
-41 -42 -94 0
-41 -43 -94 0
-41 -44 -94 0
-41 -45 -94 0
-41 -46 -94 0
-41 -47 -94 0
-42 -43 -94 0
-42 -44 -94 0
-42 -45 -94 0
-42 -46 -94 0
-42 -47 -94 0
-43 -44 -94 0
-43 -45 -94 0
-43 -46 -94 0
-43 -47 -94 0
-44 -45 -94 0
-44 -46 -94 0
-44 -47 -94 0
-45 -46 -94 0
-45 -47 -94 0
-46 -47 -94 0
-48 -49 -94 0
-48 -50 -94 0
-48 -51 -94 0
-48 -52 -94 0
-48 -53 -94 0
-48 -54 -94 0
-48 -55 -94 0
-48 -56 -94 0
-49 -50 -94 0
-49 -51 -94 0
-49 -52 -94 0
-49 -53 -94 0
-49 -54 -94 0
-49 -55 -94 0
-49 -56 -94 0
-50 -51 -94 0
-50 -52 -94 0
-50 -53 -94 0
-50 -54 -94 0
-50 -55 -94 0
-50 -56 -94 0
-51 -52 -94 0
-51 -53 -94 0
-51 -54 -94 0
-51 -55 -94 0
-51 -56 -94 0
-52 -53 -94 0
-52 -54 -94 0
-52 -55 -94 0
-52 -56 -94 0
-53 -54 -94 0
-53 -55 -94 0
-53 -56 -94 0
-54 -55 -94 0
-54 -56 -94 0
-55 -56 -94 0
-57 -58 -94 0
-57 -59 -94 0
-57 -60 -94 0
-57 -61 -94 0
-57 -62 -94 0
-57 -63 -94 0
-57 -64 -94 0
-57 -65 -94 0
-58 -59 -94 0
-58 -60 -94 0
-58 -61 -94 0
-58 -62 -94 0
-58 -63 -94 0
-58 -64 -94 0
-58 -65 -94 0
-59 -60 -94 0
-59 -61 -94 0
-59 -62 -94 0
-59 -63 -94 0
-59 -64 -94 0
-59 -65 -94 0
-60 -61 -94 0
-60 -62 -94 0
-60 -63 -94 0
-60 -64 -94 0
-60 -65 -94 0
-61 -62 -94 0
-61 -63 -94 0
-61 -64 -94 0
-61 -65 -94 0
-62 -63 -94 0
-62 -64 -94 0
-62 -65 -94 0
-63 -64 -94 0
-63 -65 -94 0
-64 -65 -94 0
-66 -67 -94 0
-66 -68 -94 0
-66 -69 -94 0
-66 -70 -94 0
-66 -71 -94 0
-66 -72 -94 0
-66 -73 -94 0
-66 -74 -94 0
-67 -68 -94 0
-67 -69 -94 0
-67 -70 -94 0
-67 -71 -94 0
-67 -72 -94 0
-67 -73 -94 0
-67 -74 -94 0
-68 -69 -94 0
-68 -70 -94 0
-68 -71 -94 0
-68 -72 -94 0
-68 -73 -94 0
-68 -74 -94 0
-69 -70 -94 0
-69 -71 -94 0
-69 -72 -94 0
-69 -73 -94 0
-69 -74 -94 0
-70 -71 -94 0
-70 -72 -94 0
-70 -73 -94 0
-70 -74 -94 0
-71 -72 -94 0
-71 -73 -94 0
-71 -74 -94 0
-72 -73 -94 0
-72 -74 -94 0
-73 -74 -94 0
-75 -76 -94 0
-75 -77 -94 0
-75 -78 -94 0
-75 -79 -94 0
-75 -80 -94 0
-75 -81 -94 0
-75 -82 -94 0
-75 -83 -94 0
-76 -77 -94 0
-76 -78 -94 0
-76 -79 -94 0
-76 -80 -94 0
-76 -81 -94 0
-76 -82 -94 0
-76 -83 -94 0
-77 -78 -94 0
-77 -79 -94 0
-77 -80 -94 0
-77 -81 -94 0
-77 -82 -94 0
-77 -83 -94 0
-78 -79 -94 0
-78 -80 -94 0
-78 -81 -94 0
-78 -82 -94 0
-78 -83 -94 0
-79 -80 -94 0
-79 -81 -94 0
-79 -82 -94 0
-79 -83 -94 0
-80 -81 -94 0
-80 -82 -94 0
-80 -83 -94 0
-81 -82 -94 0
-81 -83 -94 0
-82 -83 -94 0
-84 -85 -94 0
-84 -86 -94 0
-84 -87 -94 0
-84 -88 -94 0
-84 -89 -94 0
-84 -90 -94 0
-84 -91 -94 0
-84 -92 -94 0
-85 -86 -94 0
-85 -87 -94 0
-85 -88 -94 0
-85 -89 -94 0
-85 -90 -94 0
-85 -91 -94 0
-85 -92 -94 0
-86 -87 -94 0
-86 -88 -94 0
-86 -89 -94 0
-86 -90 -94 0
-86 -91 -94 0
-86 -92 -94 0
-87 -88 -94 0
-87 -89 -94 0
-87 -90 -94 0
-87 -91 -94 0
-87 -92 -94 0
-88 -89 -94 0
-88 -90 -94 0
-88 -91 -94 0
-88 -92 -94 0
-89 -90 -94 0
-89 -91 -94 0
-89 -92 -94 0
-90 -91 -94 0
-90 -92 -94 0
-91 -92 -94 0
93 94 0
